data;
param n:=100;
param w:=1 9 2 343 3 354 4 66 5 481 6 -67 7 -220 8 202 9 -473 10 45 11 232 12 -188 13 -395 14 246 15 370 16 -375 17 -137 18 -310 19 124 20 67 21 216 22 16 23 216 24 233 25 -199 26 -228 27 -96 28 340 29 7 30 -467 31 -144 32 258 33 -270 34 232 35 392 36 -49 37 220 38 -157 39 30 40 -357 41 -100 42 -190 43 316 44 254 45 -32 46 28 47 -424 48 -301 49 346 50 360 51 40 52 -159 53 -162 54 -389 55 -223 56 -414 57 311 58 325 59 275 60 314 61 -96 62 11 63 -467 64 71 65 141 66 -199 67 81 68 235 69 446 70 -169 71 -422 72 -446 73 -21 74 -54 75 -172 76 219 77 343 78 335 79 -267 80 328 81 -181 82 -321 83 -417 84 11 85 495 86 69 87 -174 88 -321 89 117 90 -275 91 229 92 -496 93 267 94 236 95 164 96 356 97 363 98 -407 99 -16 100 -338;
